Test: fpga12_9_sat.cnf
Options: -no-inverting-opt -activity-look-freq=1
WARNING: for repeatability, setting FPU to use double precision
============================[ Problem Statistics ]=============================
|                                                                             |
|  Number of symmetries:           25                                         |
|  Number of invertingSyms:         0                                         |
|  Number of variables:           162                                         |
|  Number of clauses:             684                                         |
|  Parse time:                   0.00 s                                       |
|                                                                             |
============================[ Search Statistics ]==============================
| Conflicts |          ORIGINAL         |          LEARNT          | Progress |
|           |    Vars  Clauses Literals |    Limit  Clauses Lit/Cl |          |
===============================================================================
|       100 |     162      684     1836 |      250      248     38 |  0.004 % |
===============================================================================
restarts              : 2
conflicts             : 188            (47000 /sec)
symconflicts          : 55             (13750 /sec)
decisions             : 462            (0.00 % random) (115500 /sec)
propagations          : 10263          (2565750 /sec)
sympropagations       : 235            (58750 /sec)
conflict literals     : 5573           (1.62 % deleted)
literals     : 5573           (1.62 % deleted)

HEURISTIC USAGES
random                : 0           
activity w/ lookahead : 461         
activity no lookahead : 0           
original sp           : 0           
sym count             : 0           

Memory used           : 5.00 MB
CPU time              : 0.004 s

SATISFIABLE
